words_easy_train/words_416_SAT.qaiger
aag 72 16 0 1 56
26
6
22
24
28
4
10
18
8
14
12
16
30
32
2
20
144
34 33 16
36 32 17
38 37 35
40 28 12
42 26 10
44 24 8
46 22 6
48 20 4
50 18 2
52 21 5
54 53 49
56 54 50
58 57 49
60 23 7
62 61 47
64 62 59
66 65 47
68 25 9
70 69 45
72 70 67
74 73 45
76 27 11
78 77 43
80 78 75
82 81 43
84 29 13
86 85 41
88 86 83
90 89 41
92 30 14
94 31 15
96 95 93
98 96 91
100 97 90
102 87 82
104 103 89
106 81 65
108 55 51
110 71 47
112 63 49
114 113 111
116 79 45
118 117 57
120 118 114
122 120 109
124 122 106
126 124 73
128 126 104
130 128 101
132 130 93
134 131 92
136 135 133
138 136 99
140 138 38
142 139 39
144 143 141
i0 1 x2[4]
i1 2 y2[2]
i2 1 x2[2]
i3 1 x2[3]
i4 1 x2[5]
i5 2 y2[1]
i6 2 y2[4]
i7 1 x2[0]
i8 2 y2[3]
i9 2 y2[6]
i10 2 y2[5]
i11 2 y2[7]
i12 1 x2[6]
i13 1 x2[7]
i14 2 y2[0]
i15 1 x2[1]
o0 bv[0]
c
simplified
  <
    add
      2 y2
      1 x2
    invert
      1
