words_easy_train/words_416_SAT.qaiger.qdimacs
p cnf 72 169
a 9 10 11 12 13 14 15 16 0
e 1 2 3 4 5 6 7 8 17 18 19 20 21 22 23 24 25 26 27 28 29 30 31 32 33 34 35 36 37 38 39 40 41 42 43 44 45 46 47 48 49 50 51 52 53 54 55 56 57 58 59 60 61 62 63 64 65 66 67 68 69 70 71 72 0
16 -8 17 0
-16 -17 0
8 -17 0
-16 8 18 0
16 -18 0
-8 -18 0
18 17 19 0
-18 -19 0
-17 -19 0
-14 -6 20 0
14 -20 0
6 -20 0
-13 -5 21 0
13 -21 0
5 -21 0
-12 -4 22 0
12 -22 0
4 -22 0
-11 -3 23 0
11 -23 0
3 -23 0
-10 -2 24 0
10 -24 0
2 -24 0
-9 -1 25 0
9 -25 0
1 -25 0
10 2 26 0
-10 -26 0
-2 -26 0
26 24 27 0
-26 -27 0
-24 -27 0
-27 -25 28 0
27 -28 0
25 -28 0
28 24 29 0
-28 -29 0
-24 -29 0
11 3 30 0
-11 -30 0
-3 -30 0
30 23 31 0
-30 -31 0
-23 -31 0
-31 29 32 0
31 -32 0
-29 -32 0
32 23 33 0
-32 -33 0
-23 -33 0
12 4 34 0
-12 -34 0
-4 -34 0
34 22 35 0
-34 -35 0
-22 -35 0
-35 33 36 0
35 -36 0
-33 -36 0
36 22 37 0
-36 -37 0
-22 -37 0
13 5 38 0
-13 -38 0
-5 -38 0
38 21 39 0
-38 -39 0
-21 -39 0
-39 37 40 0
39 -40 0
-37 -40 0
40 21 41 0
-40 -41 0
-21 -41 0
14 6 42 0
-14 -42 0
-6 -42 0
42 20 43 0
-42 -43 0
-20 -43 0
-43 41 44 0
43 -44 0
-41 -44 0
44 20 45 0
-44 -45 0
-20 -45 0
-15 -7 46 0
15 -46 0
7 -46 0
15 7 47 0
-15 -47 0
-7 -47 0
47 46 48 0
-47 -48 0
-46 -48 0
-48 45 49 0
48 -49 0
-45 -49 0
48 -45 50 0
-48 -50 0
45 -50 0
43 -41 51 0
-43 -51 0
41 -51 0
51 44 52 0
-51 -52 0
-44 -52 0
40 32 53 0
-40 -53 0
-32 -53 0
27 25 54 0
-27 -54 0
-25 -54 0
35 23 55 0
-35 -55 0
-23 -55 0
31 24 56 0
-31 -56 0
-24 -56 0
56 55 57 0
-56 -57 0
-55 -57 0
39 22 58 0
-39 -58 0
-22 -58 0
58 28 59 0
-58 -59 0
-28 -59 0
-59 -57 60 0
59 -60 0
57 -60 0
-60 54 61 0
60 -61 0
-54 -61 0
-61 -53 62 0
61 -62 0
53 -62 0
-62 36 63 0
62 -63 0
-36 -63 0
-63 -52 64 0
63 -64 0
52 -64 0
-64 50 65 0
64 -65 0
-50 -65 0
-65 46 66 0
65 -66 0
-46 -66 0
65 -46 67 0
-65 -67 0
46 -67 0
67 66 68 0
-67 -68 0
-66 -68 0
-68 49 69 0
68 -69 0
-49 -69 0
-69 -19 70 0
69 -70 0
19 -70 0
69 19 71 0
-69 -71 0
-19 -71 0
71 70 72 0
-71 -72 0
-70 -72 0
72 0
